c Generated map
c Size: 8 * 8, weights in range: 1 to 10, walls: False, with ratio 0.0
c dim 8 of 9
c
p sp 64 112
c graph contains 64 nodes and 112 arcs
c
a 1 9 5
a 9 1 5
a 1 2 5
a 2 1 5
a 2 10 8
a 10 2 8
a 2 3 1
a 3 2 1
a 3 11 7
a 11 3 7
a 3 4 8
a 4 3 8
a 4 12 6
a 12 4 6
a 4 5 3
a 5 4 3
a 5 13 3
a 13 5 3
a 5 6 6
a 6 5 6
a 6 14 7
a 14 6 7
a 6 7 9
a 7 6 9
a 7 15 3
a 15 7 3
a 7 8 1
a 8 7 1
a 8 16 2
a 16 8 2
a 9 17 8
a 17 9 8
a 9 10 10
a 10 9 10
a 10 18 10
a 18 10 10
a 10 11 10
a 11 10 10
a 11 19 10
a 19 11 10
a 11 12 5
a 12 11 5
a 12 20 8
a 20 12 8
a 12 13 8
a 13 12 8
a 13 21 6
a 21 13 6
a 13 14 8
a 14 13 8
a 14 22 8
a 22 14 8
a 14 15 10
a 15 14 10
a 15 23 6
a 23 15 6
a 15 16 4
a 16 15 4
a 16 24 4
a 24 16 4
a 17 25 10
a 25 17 10
a 17 18 9
a 18 17 9
a 18 26 9
a 26 18 9
a 18 19 8
a 19 18 8
a 19 27 9
a 27 19 9
a 19 20 2
a 20 19 2
a 20 28 10
a 28 20 10
a 20 21 8
a 21 20 8
a 21 29 4
a 29 21 4
a 21 22 3
a 22 21 3
a 22 30 3
a 30 22 3
a 22 23 2
a 23 22 2
a 23 31 3
a 31 23 3
a 23 24 2
a 24 23 2
a 24 32 5
a 32 24 5
a 25 33 9
a 33 25 9
a 25 26 9
a 26 25 9
a 26 34 6
a 34 26 6
a 26 27 3
a 27 26 3
a 27 35 6
a 35 27 6
a 27 28 7
a 28 27 7
a 28 36 9
a 36 28 9
a 28 29 7
a 29 28 7
a 29 37 9
a 37 29 9
a 29 30 7
a 30 29 7
a 30 38 6
a 38 30 6
a 30 31 2
a 31 30 2
a 31 39 7
a 39 31 7
a 31 32 10
a 32 31 10
a 32 40 6
a 40 32 6
a 33 41 3
a 41 33 3
a 33 34 9
a 34 33 9
a 34 42 9
a 42 34 9
a 34 35 7
a 35 34 7
a 35 43 4
a 43 35 4
a 35 36 6
a 36 35 6
a 36 44 9
a 44 36 9
a 36 37 9
a 37 36 9
a 37 45 10
a 45 37 10
a 37 38 6
a 38 37 6
a 38 46 2
a 46 38 2
a 38 39 10
a 39 38 10
a 39 47 8
a 47 39 8
a 39 40 1
a 40 39 1
a 40 48 3
a 48 40 3
a 41 49 4
a 49 41 4
a 41 42 5
a 42 41 5
a 42 50 4
a 50 42 4
a 42 43 5
a 43 42 5
a 43 51 10
a 51 43 10
a 43 44 1
a 44 43 1
a 44 52 5
a 52 44 5
a 44 45 6
a 45 44 6
a 45 53 2
a 53 45 2
a 45 46 6
a 46 45 6
a 46 54 1
a 54 46 1
a 46 47 3
a 47 46 3
a 47 55 9
a 55 47 9
a 47 48 1
a 48 47 1
a 48 56 5
a 56 48 5
a 49 57 6
a 57 49 6
a 49 50 9
a 50 49 9
a 50 58 4
a 58 50 4
a 50 51 7
a 51 50 7
a 51 59 7
a 59 51 7
a 51 52 6
a 52 51 6
a 52 60 5
a 60 52 5
a 52 53 5
a 53 52 5
a 53 61 9
a 61 53 9
a 53 54 10
a 54 53 10
a 54 62 5
a 62 54 5
a 54 55 3
a 55 54 3
a 55 63 2
a 63 55 2
a 55 56 9
a 56 55 9
a 56 64 9
a 64 56 9
a 57 58 5
a 58 57 5
a 58 59 6
a 59 58 6
a 59 60 10
a 60 59 10
a 60 61 6
a 61 60 6
a 61 62 7
a 62 61 7
a 62 63 1
a 63 62 1
a 63 64 1
a 64 63 1
